p cnf 366 893
1 0
14 -15 0
-14 15 0
16 -17 0
-16 17 0
13 -14 0
13 -16 0
-13 14 16 0
18 -19 0
-18 19 0
12 -13 0
12 -18 0
-12 13 18 0
-21 13 0
21 -13 0
22 19 0
-22 -19 0
20 -21 0
20 -22 0
-20 21 22 0
-11 12 0
-11 20 0
11 -12 -20 0
25 -15 0
-25 15 0
26 17 0
-26 -17 0
24 -25 0
24 -26 0
-24 25 26 0
27 -19 0
-27 19 0
23 -24 0
23 -27 0
-23 24 27 0
-10 11 0
-10 23 0
10 -11 -23 0
-29 24 0
29 -24 0
30 19 0
-30 -19 0
28 -29 0
28 -30 0
-28 29 30 0
-9 10 0
-9 28 0
9 -10 -28 0
33 15 0
-33 -15 0
34 -17 0
-34 17 0
32 -33 0
32 -34 0
-32 33 34 0
35 -19 0
-35 19 0
31 -32 0
31 -35 0
-31 32 35 0
-8 9 0
-8 31 0
8 -9 -31 0
-37 32 0
37 -32 0
38 19 0
-38 -19 0
36 -37 0
36 -38 0
-36 37 38 0
-7 8 0
-7 36 0
7 -8 -36 0
41 15 0
-41 -15 0
42 17 0
-42 -17 0
40 -41 0
40 -42 0
-40 41 42 0
43 -19 0
-43 19 0
39 -40 0
39 -43 0
-39 40 43 0
-6 7 0
-6 39 0
6 -7 -39 0
-44 39 0
44 -39 0
-5 6 0
-5 44 0
5 -6 -44 0
55 -56 0
-55 56 0
57 -58 0
-57 58 0
54 -55 0
54 -57 0
-54 55 57 0
59 -60 0
-59 60 0
53 -54 0
53 -59 0
-53 54 59 0
-62 54 0
62 -54 0
63 60 0
-63 -60 0
61 -62 0
61 -63 0
-61 62 63 0
-52 53 0
-52 61 0
52 -53 -61 0
66 -56 0
-66 56 0
67 58 0
-67 -58 0
65 -66 0
65 -67 0
-65 66 67 0
68 -60 0
-68 60 0
64 -65 0
64 -68 0
-64 65 68 0
-51 52 0
-51 64 0
51 -52 -64 0
-70 65 0
70 -65 0
71 60 0
-71 -60 0
69 -70 0
69 -71 0
-69 70 71 0
-50 51 0
-50 69 0
50 -51 -69 0
74 56 0
-74 -56 0
75 -58 0
-75 58 0
73 -74 0
73 -75 0
-73 74 75 0
76 -60 0
-76 60 0
72 -73 0
72 -76 0
-72 73 76 0
-49 50 0
-49 72 0
49 -50 -72 0
-78 73 0
78 -73 0
79 60 0
-79 -60 0
77 -78 0
77 -79 0
-77 78 79 0
-48 49 0
-48 77 0
48 -49 -77 0
82 56 0
-82 -56 0
83 58 0
-83 -58 0
81 -82 0
81 -83 0
-81 82 83 0
84 -60 0
-84 60 0
80 -81 0
80 -84 0
-80 81 84 0
-47 48 0
-47 80 0
47 -48 -80 0
-85 80 0
85 -80 0
-46 47 0
-46 85 0
46 -47 -85 0
-86 39 0
86 -39 0
-45 46 0
-45 86 0
45 -46 -86 0
4 -5 0
4 -45 0
-4 5 45 0
97 -98 0
-97 98 0
99 -100 0
-99 100 0
96 -97 0
96 -99 0
-96 97 99 0
101 -102 0
-101 102 0
95 -96 0
95 -101 0
-95 96 101 0
-104 96 0
104 -96 0
105 102 0
-105 -102 0
103 -104 0
103 -105 0
-103 104 105 0
-94 95 0
-94 103 0
94 -95 -103 0
108 -98 0
-108 98 0
109 100 0
-109 -100 0
107 -108 0
107 -109 0
-107 108 109 0
110 -102 0
-110 102 0
106 -107 0
106 -110 0
-106 107 110 0
-93 94 0
-93 106 0
93 -94 -106 0
-112 107 0
112 -107 0
113 102 0
-113 -102 0
111 -112 0
111 -113 0
-111 112 113 0
-92 93 0
-92 111 0
92 -93 -111 0
116 98 0
-116 -98 0
117 -100 0
-117 100 0
115 -116 0
115 -117 0
-115 116 117 0
118 -102 0
-118 102 0
114 -115 0
114 -118 0
-114 115 118 0
-91 92 0
-91 114 0
91 -92 -114 0
-120 115 0
120 -115 0
121 102 0
-121 -102 0
119 -120 0
119 -121 0
-119 120 121 0
-90 91 0
-90 119 0
90 -91 -119 0
124 98 0
-124 -98 0
125 100 0
-125 -100 0
123 -124 0
123 -125 0
-123 124 125 0
126 -102 0
-126 102 0
122 -123 0
122 -126 0
-122 123 126 0
-89 90 0
-89 122 0
89 -90 -122 0
-127 122 0
127 -122 0
-88 89 0
-88 127 0
88 -89 -127 0
-129 39 0
129 -39 0
-130 80 0
130 -80 0
-128 129 0
-128 130 0
128 -129 -130 0
-87 88 0
-87 128 0
87 -88 -128 0
3 -4 0
3 -87 0
-3 4 87 0
-136 128 0
136 -128 0
-137 122 0
137 -122 0
-135 136 0
-135 137 0
135 -136 -137 0
-138 3 0
138 -3 0
134 -135 0
134 -138 0
-134 135 138 0
149 -98 0
-149 98 0
150 100 0
-150 -100 0
-148 149 0
-148 150 0
148 -149 -150 0
151 -102 0
-151 102 0
-147 148 0
-147 151 0
147 -148 -151 0
154 -15 0
-154 15 0
155 17 0
-155 -17 0
-153 154 0
-153 155 0
153 -154 -155 0
156 19 0
-156 -19 0
-152 153 0
-152 156 0
152 -153 -156 0
-146 147 0
-146 152 0
146 -147 -152 0
-159 148 0
159 -148 0
160 102 0
-160 -102 0
-158 159 0
-158 160 0
158 -159 -160 0
-162 153 0
162 -153 0
163 -19 0
-163 19 0
-161 162 0
-161 163 0
161 -162 -163 0
-157 158 0
-157 161 0
157 -158 -161 0
145 -146 0
145 -157 0
-145 146 157 0
-165 158 0
165 -158 0
168 -15 0
-168 15 0
169 -17 0
-169 17 0
-167 168 0
-167 169 0
167 -168 -169 0
170 19 0
-170 -19 0
-166 167 0
-166 170 0
166 -167 -170 0
-164 165 0
-164 166 0
164 -165 -166 0
144 -145 0
144 -164 0
-144 145 164 0
174 98 0
-174 -98 0
175 -100 0
-175 100 0
-173 174 0
-173 175 0
173 -174 -175 0
176 -102 0
-176 102 0
-172 173 0
-172 176 0
172 -173 -176 0
-177 152 0
177 -152 0
-171 172 0
-171 177 0
171 -172 -177 0
143 -144 0
143 -171 0
-143 144 171 0
-180 173 0
180 -173 0
181 102 0
-181 -102 0
-179 180 0
-179 181 0
179 -180 -181 0
184 15 0
-184 -15 0
185 -17 0
-185 17 0
-183 184 0
-183 185 0
183 -184 -185 0
186 -19 0
-186 19 0
-182 183 0
-182 186 0
182 -183 -186 0
-178 179 0
-178 182 0
178 -179 -182 0
142 -143 0
142 -178 0
-142 143 178 0
190 -98 0
-190 98 0
191 -100 0
-191 100 0
-189 190 0
-189 191 0
189 -190 -191 0
192 102 0
-192 -102 0
-188 189 0
-188 192 0
188 -189 -192 0
195 15 0
-195 -15 0
196 17 0
-196 -17 0
-194 195 0
-194 196 0
194 -195 -196 0
197 -19 0
-197 19 0
-193 194 0
-193 197 0
193 -194 -197 0
-187 188 0
-187 193 0
187 -188 -193 0
141 -142 0
141 -187 0
-141 142 187 0
201 98 0
-201 -98 0
202 100 0
-202 -100 0
-200 201 0
-200 202 0
200 -201 -202 0
203 -102 0
-203 102 0
-199 200 0
-199 203 0
199 -200 -203 0
-205 183 0
205 -183 0
206 19 0
-206 -19 0
-204 205 0
-204 206 0
204 -205 -206 0
-198 199 0
-198 204 0
198 -199 -204 0
140 -141 0
140 -198 0
-140 141 198 0
-209 200 0
209 -200 0
210 102 0
-210 -102 0
-208 209 0
-208 210 0
208 -209 -210 0
-211 193 0
211 -193 0
-207 208 0
-207 211 0
207 -208 -211 0
139 -140 0
139 -207 0
-139 140 207 0
-133 134 0
-133 139 0
133 -134 -139 0
-213 134 0
213 -134 0
-222 147 0
222 -147 0
225 -56 0
-225 56 0
226 58 0
-226 -58 0
-224 225 0
-224 226 0
224 -225 -226 0
227 60 0
-227 -60 0
-223 224 0
-223 227 0
223 -224 -227 0
-221 222 0
-221 223 0
221 -222 -223 0
-229 158 0
229 -158 0
-231 224 0
231 -224 0
232 -60 0
-232 60 0
-230 231 0
-230 232 0
230 -231 -232 0
-228 229 0
-228 230 0
228 -229 -230 0
220 -221 0
220 -228 0
-220 221 228 0
-234 158 0
234 -158 0
237 -56 0
-237 56 0
238 -58 0
-238 58 0
-236 237 0
-236 238 0
236 -237 -238 0
239 60 0
-239 -60 0
-235 236 0
-235 239 0
235 -236 -239 0
-233 234 0
-233 235 0
233 -234 -235 0
219 -220 0
219 -233 0
-219 220 233 0
-241 172 0
241 -172 0
-242 223 0
242 -223 0
-240 241 0
-240 242 0
240 -241 -242 0
218 -219 0
218 -240 0
-218 219 240 0
-244 179 0
244 -179 0
247 56 0
-247 -56 0
248 -58 0
-248 58 0
-246 247 0
-246 248 0
246 -247 -248 0
249 -60 0
-249 60 0
-245 246 0
-245 249 0
245 -246 -249 0
-243 244 0
-243 245 0
243 -244 -245 0
217 -218 0
217 -243 0
-217 218 243 0
-251 188 0
251 -188 0
254 56 0
-254 -56 0
255 58 0
-255 -58 0
-253 254 0
-253 255 0
253 -254 -255 0
256 -60 0
-256 60 0
-252 253 0
-252 256 0
252 -253 -256 0
-250 251 0
-250 252 0
250 -251 -252 0
216 -217 0
216 -250 0
-216 217 250 0
-258 199 0
258 -199 0
-260 246 0
260 -246 0
261 60 0
-261 -60 0
-259 260 0
-259 261 0
259 -260 -261 0
-257 258 0
-257 259 0
257 -258 -259 0
215 -216 0
215 -257 0
-215 216 257 0
-263 208 0
263 -208 0
-264 252 0
264 -252 0
-262 263 0
-262 264 0
262 -263 -264 0
214 -215 0
214 -262 0
-214 215 262 0
-212 213 0
-212 214 0
212 -213 -214 0
132 -133 0
132 -212 0
-132 133 212 0
-266 134 0
266 -134 0
-275 147 0
275 -147 0
-276 158 0
276 -158 0
-274 275 0
-274 276 0
274 -275 -276 0
-278 158 0
278 -158 0
-279 147 0
279 -147 0
-277 278 0
-277 279 0
277 -278 -279 0
273 -274 0
273 -277 0
-273 274 277 0
-281 158 0
281 -158 0
-282 188 0
282 -188 0
-280 281 0
-280 282 0
280 -281 -282 0
272 -273 0
272 -280 0
-272 273 280 0
-284 172 0
284 -172 0
-285 158 0
285 -158 0
-283 284 0
-283 285 0
283 -284 -285 0
271 -272 0
271 -283 0
-271 272 283 0
-287 179 0
287 -179 0
-288 172 0
288 -172 0
-286 287 0
-286 288 0
286 -287 -288 0
270 -271 0
270 -286 0
-270 271 286 0
-290 188 0
290 -188 0
-291 199 0
291 -199 0
-289 290 0
-289 291 0
289 -290 -291 0
269 -270 0
269 -289 0
-269 270 289 0
-293 199 0
293 -199 0
-294 179 0
294 -179 0
-292 293 0
-292 294 0
292 -293 -294 0
268 -269 0
268 -292 0
-268 269 292 0
-296 208 0
296 -208 0
-297 199 0
297 -199 0
-295 296 0
-295 297 0
295 -296 -297 0
267 -268 0
267 -295 0
-267 268 295 0
-265 266 0
-265 267 0
265 -266 -267 0
131 -132 0
131 -265 0
-131 132 265 0
2 -3 0
2 -131 0
-2 3 131 0
-308 161 0
308 -161 0
-309 223 0
309 -223 0
-307 308 0
-307 309 0
307 -308 -309 0
-311 152 0
311 -152 0
-312 230 0
312 -230 0
-310 311 0
-310 312 0
310 -311 -312 0
306 -307 0
306 -310 0
-306 307 310 0
-314 152 0
314 -152 0
-315 235 0
315 -235 0
-313 314 0
-313 315 0
313 -314 -315 0
305 -306 0
305 -313 0
-305 306 313 0
-317 182 0
317 -182 0
-318 223 0
318 -223 0
-316 317 0
-316 318 0
316 -317 -318 0
304 -305 0
304 -316 0
-304 305 316 0
-320 204 0
320 -204 0
-321 245 0
321 -245 0
-319 320 0
-319 321 0
319 -320 -321 0
303 -304 0
303 -319 0
-303 304 319 0
-323 166 0
323 -166 0
-324 252 0
324 -252 0
-322 323 0
-322 324 0
322 -323 -324 0
302 -303 0
302 -322 0
-302 303 322 0
-326 193 0
326 -193 0
-327 259 0
327 -259 0
-325 326 0
-325 327 0
325 -326 -327 0
301 -302 0
301 -325 0
-301 302 325 0
-330 194 0
330 -194 0
331 19 0
-331 -19 0
-329 330 0
-329 331 0
329 -330 -331 0
-332 252 0
332 -252 0
-328 329 0
-328 332 0
328 -329 -332 0
300 -301 0
300 -328 0
-300 301 328 0
-341 230 0
341 -230 0
-342 158 0
342 -158 0
-340 341 0
-340 342 0
340 -341 -342 0
-344 223 0
344 -223 0
-345 147 0
345 -147 0
-343 344 0
-343 345 0
343 -344 -345 0
339 -340 0
339 -343 0
-339 340 343 0
-347 223 0
347 -223 0
-348 188 0
348 -188 0
-346 347 0
-346 348 0
346 -347 -348 0
338 -339 0
338 -346 0
-338 339 346 0
-350 245 0
350 -245 0
-351 158 0
351 -158 0
-349 350 0
-349 351 0
349 -350 -351 0
337 -338 0
337 -349 0
-337 338 349 0
-353 259 0
353 -259 0
-354 172 0
354 -172 0
-352 353 0
-352 354 0
352 -353 -354 0
336 -337 0
336 -352 0
-336 337 352 0
-356 235 0
356 -235 0
-357 199 0
357 -199 0
-355 356 0
-355 357 0
355 -356 -357 0
335 -336 0
335 -355 0
-335 336 355 0
-359 252 0
359 -252 0
-360 179 0
360 -179 0
-358 359 0
-358 360 0
358 -359 -360 0
334 -335 0
334 -358 0
-334 335 358 0
-363 253 0
363 -253 0
364 60 0
-364 -60 0
-362 363 0
-362 364 0
362 -363 -364 0
-365 199 0
365 -199 0
-361 362 0
-361 365 0
361 -362 -365 0
333 -334 0
333 -361 0
-333 334 361 0
-299 300 0
-299 333 0
299 -300 -333 0
-366 329 0
366 -329 0
-298 299 0
-298 366 0
298 -299 -366 0
-1 2 0
-1 298 0
1 -2 -298 0
